903
11
112880
1150
 0 1 1 144 140  9 0 68 2 28 61 21 74 30 0
 0 1 1 153 122  9 0 63 23 56 41 43 33 6 0
 0 1 1 160 113  9 0 62 22 64 42 1 73 75 0
 0 1 1 138 136  9 0 45 29 5 36 47 48 4 0
 0 1 1 159 71  8 0 37 20 70 60 71 69 0
 0 1 1 156 135  10 0 27 15 57 13 54 52 34 67 0
 0 1 1 152 138  9 0 46 8 19 59 14 35 7 0
 0 1 1 127 129  7 0 38 65 66 11 53 0
 0 1 1 151 123  9 0 26 58 10 31 39 72 12 0
 0 1 1 153 118  8 0 50 18 55 25 9 40 0
 0 1 1 160 139  10 0 17 32 44 3 24 49 16 51 0
